NAME          
ROWS
 N  OBJ
 L  c1
 L  c2
 L  c3
 L  c4
 L  c5
 L  c6
 L  c7
 L  c8
 L  c9
 L  c10
 L  c11
 L  c12
 L  c13
 L  c14
 L  c15
 L  c16
 L  c17
 L  c18
 L  c19
 L  c20
 L  c21
 L  c22
 L  c23
 L  c24
 L  c25
 L  c26
 L  c27
 L  c28
 L  c29
 L  c30
 L  c31
 L  c32
 L  c33
 L  c34
 L  c35
 L  c36
 L  c37
 L  c38
 L  c39
 L  c40
 L  c41
 L  c42
 L  c43
 L  c44
 L  c45
 L  c46
 L  c47
 L  c48
 L  c49
 L  c50
 L  c51
 L  c52
 L  c53
 L  c54
 L  c55
 L  c56
 L  c57
 L  c58
 L  c59
 L  c60
 L  c61
 L  c62
 L  c63
 L  c64
 L  c65
 L  c66
 L  c67
 L  c68
 L  c69
 L  c70
 L  c71
 L  c72
 L  c73
 L  c74
 L  c75
 L  c76
 L  c77
 L  c78
 L  c79
 L  c80
 L  c81
 L  c82
 L  c83
 L  c84
 L  c85
 L  c86
 L  c87
 L  c88
 L  c89
 L  c90
 L  c91
 L  c92
 L  c93
 L  c94
 L  c95
 L  c96
 L  c97
 L  c98
 L  c99
 L  c100
COLUMNS
    MARKER    'MARKER'                 'INTORG'
    x[1]      c6        1
    x[1]      c10       1
    x[1]      c39       1
    x[1]      c43       1
    x[1]      c78       1
    x[1]      c85       1
    x[1]      c98       1
    x[1]      OBJ       -1
    x[2]      c10       1
    x[2]      c65       1
    x[2]      OBJ       -1
    x[3]      c1        1
    x[3]      c4        1
    x[3]      c21       1
    x[3]      c25       1
    x[3]      c33       1
    x[3]      c34       1
    x[3]      c55       1
    x[3]      c67       1
    x[3]      OBJ       -1
    x[4]      c8        1
    x[4]      c9        1
    x[4]      c19       1
    x[4]      c35       1
    x[4]      c43       1
    x[4]      c82       1
    x[4]      c99       1
    x[4]      OBJ       -1
    x[5]      c7        1
    x[5]      c49       1
    x[5]      c58       1
    x[5]      c64       1
    x[5]      c66       1
    x[5]      OBJ       -1
    x[6]      c9        1
    x[6]      c14       1
    x[6]      c41       1
    x[6]      c43       1
    x[6]      c54       1
    x[6]      c55       1
    x[6]      c71       1
    x[6]      c92       1
    x[6]      OBJ       -1
    x[7]      c25       1
    x[7]      c28       1
    x[7]      c41       1
    x[7]      c74       1
    x[7]      OBJ       -1
    x[8]      c26       1
    x[8]      c37       1
    x[8]      c49       1
    x[8]      c51       1
    x[8]      c62       1
    x[8]      OBJ       -1
    x[9]      c17       1
    x[9]      c36       1
    x[9]      c45       1
    x[9]      c77       1
    x[9]      OBJ       -1
    x[10]     c55       1
    x[10]     c77       1
    x[10]     c82       1
    x[10]     c90       1
    x[10]     OBJ       -1
    x[11]     c3        1
    x[11]     c40       1
    x[11]     c78       1
    x[11]     c83       1
    x[11]     OBJ       -1
    x[12]     c69       1
    x[12]     c83       1
    x[12]     c96       1
    x[12]     c97       1
    x[12]     OBJ       -1
    x[13]     c5        1
    x[13]     c53       1
    x[13]     c96       1
    x[13]     OBJ       -1
    x[14]     c5        1
    x[14]     c32       1
    x[14]     c45       1
    x[14]     c61       1
    x[14]     OBJ       -1
    x[15]     c3        1
    x[15]     c4        1
    x[15]     c61       1
    x[15]     c66       1
    x[15]     c72       1
    x[15]     c79       1
    x[15]     c85       1
    x[15]     OBJ       -1
    x[16]     c35       1
    x[16]     c61       1
    x[16]     c97       1
    x[16]     OBJ       -1
    x[17]     c10       1
    x[17]     c12       1
    x[17]     c71       1
    x[17]     OBJ       -1
    x[18]     c22       1
    x[18]     c33       1
    x[18]     c76       1
    x[18]     c89       1
    x[18]     c99       1
    x[18]     OBJ       -1
    x[19]     c26       1
    x[19]     c51       1
    x[19]     c59       1
    x[19]     OBJ       -1
    x[20]     c32       1
    x[20]     c50       1
    x[20]     c72       1
    x[20]     c89       1
    x[20]     OBJ       -1
    x[21]     c15       1
    x[21]     c54       1
    x[21]     c60       1
    x[21]     c81       1
    x[21]     c82       1
    x[21]     OBJ       -1
    x[22]     c2        1
    x[22]     c41       1
    x[22]     c54       1
    x[22]     c67       1
    x[22]     OBJ       -1
    x[23]     c4        1
    x[23]     c68       1
    x[23]     c74       1
    x[23]     c76       1
    x[23]     OBJ       -1
    x[24]     c13       1
    x[24]     c30       1
    x[24]     c43       1
    x[24]     c57       1
    x[24]     c69       1
    x[24]     c70       1
    x[24]     c85       1
    x[24]     OBJ       -1
    x[25]     c21       1
    x[25]     c37       1
    x[25]     c51       1
    x[25]     c60       1
    x[25]     c95       1
    x[25]     c99       1
    x[25]     OBJ       -1
    x[26]     c12       1
    x[26]     c15       1
    x[26]     c45       1
    x[26]     c75       1
    x[26]     c78       1
    x[26]     OBJ       -1
    x[27]     c28       1
    x[27]     c65       1
    x[27]     c67       1
    x[27]     c75       1
    x[27]     c91       1
    x[27]     OBJ       -1
    x[28]     c13       1
    x[28]     c41       1
    x[28]     c63       1
    x[28]     c67       1
    x[28]     OBJ       -1
    x[29]     c22       1
    x[29]     c48       1
    x[29]     c61       1
    x[29]     c69       1
    x[29]     c75       1
    x[29]     c92       1
    x[29]     OBJ       -1
    x[30]     c12       1
    x[30]     c55       1
    x[30]     c60       1
    x[30]     c61       1
    x[30]     c74       1
    x[30]     OBJ       -1
    x[31]     c14       1
    x[31]     c20       1
    x[31]     c28       1
    x[31]     c31       1
    x[31]     c57       1
    x[31]     c60       1
    x[31]     c66       1
    x[31]     c96       1
    x[31]     OBJ       -1
    x[32]     c19       1
    x[32]     c32       1
    x[32]     c91       1
    x[32]     OBJ       -1
    x[33]     c13       1
    x[33]     c32       1
    x[33]     c33       1
    x[33]     c58       1
    x[33]     c65       1
    x[33]     c86       1
    x[33]     OBJ       -1
    x[34]     c1        1
    x[34]     c10       1
    x[34]     c24       1
    x[34]     c54       1
    x[34]     c67       1
    x[34]     c100      1
    x[34]     OBJ       -1
    x[35]     c34       1
    x[35]     c50       1
    x[35]     c90       1
    x[35]     OBJ       -1
    x[36]     c23       1
    x[36]     c27       1
    x[36]     c31       1
    x[36]     c37       1
    x[36]     c50       1
    x[36]     c74       1
    x[36]     c82       1
    x[36]     c85       1
    x[36]     c89       1
    x[36]     c92       1
    x[36]     OBJ       -1
    x[37]     c4        1
    x[37]     c9        1
    x[37]     c38       1
    x[37]     c50       1
    x[37]     c57       1
    x[37]     c70       1
    x[37]     c71       1
    x[37]     OBJ       -1
    x[38]     c6        1
    x[38]     c10       1
    x[38]     c19       1
    x[38]     c51       1
    x[38]     c64       1
    x[38]     c77       1
    x[38]     c78       1
    x[38]     c81       1
    x[38]     c91       1
    x[38]     OBJ       -1
    x[39]     c25       1
    x[39]     c84       1
    x[39]     c92       1
    x[39]     c97       1
    x[39]     OBJ       -1
    x[40]     c17       1
    x[40]     c18       1
    x[40]     c98       1
    x[40]     OBJ       -1
RHS
    rhs       c1        1
    rhs       c2        1
    rhs       c3        1
    rhs       c4        1
    rhs       c5        1
    rhs       c6        1
    rhs       c7        1
    rhs       c8        1
    rhs       c9        1
    rhs       c10       1
    rhs       c11       1
    rhs       c12       1
    rhs       c13       1
    rhs       c14       1
    rhs       c15       1
    rhs       c16       1
    rhs       c17       1
    rhs       c18       1
    rhs       c19       1
    rhs       c20       1
    rhs       c21       1
    rhs       c22       1
    rhs       c23       1
    rhs       c24       1
    rhs       c25       1
    rhs       c26       1
    rhs       c27       1
    rhs       c28       1
    rhs       c29       1
    rhs       c30       1
    rhs       c31       1
    rhs       c32       1
    rhs       c33       1
    rhs       c34       1
    rhs       c35       1
    rhs       c36       1
    rhs       c37       1
    rhs       c38       1
    rhs       c39       1
    rhs       c40       1
    rhs       c41       1
    rhs       c42       1
    rhs       c43       1
    rhs       c44       1
    rhs       c45       1
    rhs       c46       1
    rhs       c47       1
    rhs       c48       1
    rhs       c49       1
    rhs       c50       1
    rhs       c51       1
    rhs       c52       1
    rhs       c53       1
    rhs       c54       1
    rhs       c55       1
    rhs       c56       1
    rhs       c57       1
    rhs       c58       1
    rhs       c59       1
    rhs       c60       1
    rhs       c61       1
    rhs       c62       1
    rhs       c63       1
    rhs       c64       1
    rhs       c65       1
    rhs       c66       1
    rhs       c67       1
    rhs       c68       1
    rhs       c69       1
    rhs       c70       1
    rhs       c71       1
    rhs       c72       1
    rhs       c73       1
    rhs       c74       1
    rhs       c75       1
    rhs       c76       1
    rhs       c77       1
    rhs       c78       1
    rhs       c79       1
    rhs       c80       1
    rhs       c81       1
    rhs       c82       1
    rhs       c83       1
    rhs       c84       1
    rhs       c85       1
    rhs       c86       1
    rhs       c87       1
    rhs       c88       1
    rhs       c89       1
    rhs       c90       1
    rhs       c91       1
    rhs       c92       1
    rhs       c93       1
    rhs       c94       1
    rhs       c95       1
    rhs       c96       1
    rhs       c97       1
    rhs       c98       1
    rhs       c99       1
    rhs       c100      1
RANGES
BOUNDS
 BV bounds    x[1]
 BV bounds    x[2]
 BV bounds    x[3]
 BV bounds    x[4]
 BV bounds    x[5]
 BV bounds    x[6]
 BV bounds    x[7]
 BV bounds    x[8]
 BV bounds    x[9]
 BV bounds    x[10]
 BV bounds    x[11]
 BV bounds    x[12]
 BV bounds    x[13]
 BV bounds    x[14]
 BV bounds    x[15]
 BV bounds    x[16]
 BV bounds    x[17]
 BV bounds    x[18]
 BV bounds    x[19]
 BV bounds    x[20]
 BV bounds    x[21]
 BV bounds    x[22]
 BV bounds    x[23]
 BV bounds    x[24]
 BV bounds    x[25]
 BV bounds    x[26]
 BV bounds    x[27]
 BV bounds    x[28]
 BV bounds    x[29]
 BV bounds    x[30]
 BV bounds    x[31]
 BV bounds    x[32]
 BV bounds    x[33]
 BV bounds    x[34]
 BV bounds    x[35]
 BV bounds    x[36]
 BV bounds    x[37]
 BV bounds    x[38]
 BV bounds    x[39]
 BV bounds    x[40]
ENDATA
